MAXIMIZE

56*x0 + 72*x1 + 78*x10 + 89*x100 + 101*x101 + 60*x102 + 59*x103 + 126*x104 + 116*x105 + 69*x106 + 68*x107 + 217*x108 + 101*x109 + 87*x11 + 88*x110 + 81*x111 + 51*x112 + 73*x113 + 65*x114 + 110*x115 + 78*x116 + 88*x117 + 108*x118 + 60*x119 + 77*x12 + 100*x120 + 86*x121 + 138*x122 + 55*x123 + 106*x124 + 116*x125 + 66*x126 + 58*x127 + 65*x128 + 58*x129 + 72*x13 + 128*x130 + 144*x131 + 77*x132 + 53*x133 + 57*x134 + 110*x135 + 89*x136 + 162*x137 + 135*x138 + 60*x139 + 175*x14 + 117*x140 + 195*x141 + 147*x142 + 74*x143 + 58*x144 + 125*x145 + 55*x146 + 68*x147 + 100*x148 + 91*x149 + 55*x15 + 81*x150 + 101*x151 + 52*x152 + 90*x153 + 67*x154 + 144*x155 + 77*x156 + 107*x157 + 130*x158 + 113*x159 + 82*x16 + 122*x160 + 52*x161 + 61*x162 + 131*x163 + 92*x164 + 51*x165 + 111*x166 + 109*x167 + 78*x168 + 83*x169 + 77*x17 + 84*x170 + 54*x171 + 77*x172 + 76*x173 + 68*x174 + 156*x175 + 81*x176 + 81*x177 + 145*x178 + 138*x179 + 92*x18 + 152*x180 + 87*x181 + 124*x182 + 130*x183 + 104*x184 + 72*x185 + 125*x186 + 116*x187 + 111*x188 + 146*x189 + 112*x19 + 115*x190 + 81*x191 + 303*x192 + 179*x193 + 102*x194 + 123*x195 + 52*x196 + 155*x197 + 73*x198 + 96*x199 + 169*x2 + 132*x20 + 55*x200 + 58*x201 + 123*x202 + 51*x203 + 178*x204 + 75*x205 + 87*x206 + 58*x207 + 229*x208 + 83*x209 + 84*x21 + 70*x210 + 82*x211 + 152*x212 + 107*x213 + 101*x214 + 99*x215 + 55*x216 + 121*x217 + 113*x218 + 146*x219 + 112*x22 + 183*x220 + 138*x221 + 63*x222 + 62*x223 + 138*x224 + 102*x225 + 84*x226 + 70*x227 + 85*x228 + 56*x229 + 103*x23 + 130*x230 + 102*x231 + 104*x232 + 109*x233 + 88*x234 + 76*x235 + 98*x236 + 90*x237 + 136*x238 + 107*x239 + 63*x24 + 58*x240 + 95*x241 + 78*x242 + 74*x243 + 112*x244 + 55*x25 + 56*x26 + 84*x27 + 74*x28 + 88*x29 + 102*x3 + 124*x30 + 94*x31 + 93*x32 + 65*x33 + 79*x34 + 64*x35 + 58*x36 + 100*x37 + 136*x38 + 118*x39 + 107*x4 + 85*x40 + 94*x41 + 100*x42 + 169*x43 + 143*x44 + 66*x45 + 71*x46 + 209*x47 + 172*x48 + 73*x49 + 83*x5 + 60*x50 + 62*x51 + 55*x52 + 52*x53 + 94*x54 + 70*x55 + 85*x56 + 136*x57 + 53*x58 + 100*x59 + 175*x6 + 52*x60 + 97*x61 + 158*x62 + 57*x63 + 199*x64 + 78*x65 + 157*x66 + 120*x67 + 181*x68 + 73*x69 + 165*x7 + 123*x70 + 56*x71 + 97*x72 + 57*x73 + 89*x74 + 66*x75 + 94*x76 + 77*x77 + 64*x78 + 86*x79 + 62*x8 + 59*x80 + 80*x81 + 79*x82 + 164*x83 + 117*x84 + 87*x85 + 82*x86 + 51*x87 + 173*x88 + 75*x89 + 144*x9 + 85*x90 + 99*x91 + 74*x92 + 53*x93 + 72*x94 + 53*x95 + 85*x96 + 58*x97 + 54*x98 + 82*x99 + 0

SUBJECT TO

Cash: 45 x0 + 45 x1 + 55 x10 + 55 x100 + 60 x101 + 45 x102 + 50 x103 + 105 x104 + 55 x105 + 50 x106 + 45 x107 + 125 x108 + 50 x109 + 110 x11

 + 50 x110 + 50 x111 + 50 x112 + 50 x113 + 45 x114 + 65 x115 + 45 x116

 + 55 x117 + 50 x118 + 55 x119 + 60 x12 + 55 x120 + 50 x121 + 95 x122

 + 65 x123 + 65 x124 + 50 x125 + 45 x126 + 50 x127 + 50 x128 + 50 x129

 + 60 x13 + 70 x130 + 55 x131 + 55 x132 + 50 x133 + 45 x134 + 50 x135

 + 50 x136 + 110 x137 + 45 x138 + 45 x139 + 65 x14 + 55 x140 + 90 x141

 + 95 x142 + 50 x143 + 45 x144 + 75 x145 + 45 x146 + 45 x147 + 65 x148

 + 50 x149 + 55 x15 + 50 x150 + 50 x151 + 45 x152 + 50 x153 + 50 x154

 + 65 x155 + 55 x156 + 70 x157 + 55 x158 + 55 x159 + 55 x16 + 90 x160

 + 45 x161 + 45 x162 + 60 x163 + 60 x164 + 50 x165 + 65 x166 + 55 x167

 + 50 x168 + 55 x169 + 50 x17 + 50 x170 + 45 x171 + 45 x172 + 55 x173

 + 45 x174 + 65 x175 + 65 x176 + 60 x177 + 50 x178 + 80 x179 + 60 x18

 + 50 x180 + 50 x181 + 65 x182 + 75 x183 + 70 x184 + 55 x185 + 65 x186

 + 60 x187 + 60 x188 + 45 x189 + 45 x19 + 60 x190 + 50 x191 + 130 x192

 + 95 x193 + 45 x194 + 50 x195 + 45 x196 + 75 x197 + 55 x198 + 75 x199

 + 110 x2 + 55 x20 + 45 x200 + 50 x201 + 60 x202 + 50 x203 + 85 x204 + 60 x205

 + 45 x206 + 45 x207 + 110 x208 + 45 x209 + 65 x21 + 55 x210 + 50 x211

 + 105 x212 + 60 x213 + 50 x214 + 45 x215 + 70 x216 + 60 x217 + 60 x218

 + 65 x219 + 75 x22 + 90 x220 + 60 x221 + 55 x222 + 65 x223 + 65 x224

 + 50 x225 + 55 x226 + 65 x227 + 55 x228 + 45 x229 + 50 x23 + 75 x230

 + 60 x231 + 65 x232 + 55 x233 + 45 x234 + 45 x235 + 60 x236 + 45 x237

 + 70 x238 + 45 x239 + 45 x24 + 55 x240 + 55 x241 + 60 x242 + 50 x243

 + 85 x244 + 55 x25 + 55 x26 + 45 x27 + 55 x28 + 55 x29 + 50 x3 + 50 x30

 + 65 x31 + 65 x32 + 50 x33 + 55 x34 + 45 x35 + 50 x36 + 50 x37 + 55 x38

 + 55 x39 + 55 x4 + 45 x40 + 45 x41 + 55 x42 + 85 x43 + 60 x44 + 55 x45

 + 50 x46 + 100 x47 + 60 x48 + 60 x49 + 50 x5 + 60 x50 + 55 x51 + 55 x52

 + 50 x53 + 55 x54 + 50 x55 + 50 x56 + 60 x57 + 50 x58 + 45 x59 + 90 x6

 + 45 x60 + 45 x61 + 55 x62 + 45 x63 + 95 x64 + 50 x65 + 45 x66 + 55 x67

 + 95 x68 + 45 x69 + 65 x7 + 45 x70 + 45 x71 + 55 x72 + 45 x73 + 65 x74

 + 60 x75 + 60 x76 + 80 x77 + 45 x78 + 50 x79 + 70 x8 + 50 x80 + 55 x81

 + 60 x82 + 70 x83 + 60 x84 + 50 x85 + 55 x86 + 45 x87 + 105 x88 + 55 x89

 + 70 x9 + 55 x90 + 45 x91 + 45 x92 + 45 x93 + 45 x94 + 50 x95 + 55 x96

 + 50 x97 + 60 x98 + 50 x99 <= 1000

GK: x1 + x110 + x131 + x138 + x152 + x154 + x178 + x180 + x189 + x19 + x195

 + x30 + x38 + x48 + x58 + x62 + x63 + x66 + x69 + x70 + x78 + x91 = 2

DEF: x0 + x102 + x103 + x105 + x107 + x111 + x114 + x116 + x118 + x119 + x12

 + x120 + x125 + x126 + x134 + x135 + x136 + x139 + x14 + x140 + x144 + x146

 + x15 + x150 + x153 + x158 + x16 + x161 + x162 + x163 + x167 + x172 + x175

 + x188 + x190 + x191 + x194 + x20 + x200 + x202 + x207 + x209 + x210 + x213

 + x214 + x215 + x218 + x219 + x221 + x224 + x225 + x229 + x23 + x234 + x235

 + x236 + x237 + x239 + x24 + x240 + x241 + x242 + x27 + x28 + x3 + x33 + x34

 + x35 + x39 + x40 + x41 + x42 + x44 + x5 + x52 + x59 + x60 + x61 + x65 + x7

 + x71 + x73 + x79 + x87 + x92 + x94 = 5

MID: x10 + x100 + x101 + x109 + x112 + x113 + x117 + x121 + x123 + x124 + x127

 + x128 + x129 + x130 + x132 + x141 + x142 + x143 + x145 + x147 + x148 + x149

 + x151 + x155 + x156 + x157 + x159 + x165 + x168 + x17 + x170 + x171 + x174

 + x176 + x177 + x179 + x181 + x183 + x185 + x186 + x187 + x192 + x193 + x196

 + x197 + x198 + x199 + x201 + x203 + x204 + x205 + x206 + x208 + x211 + x212

 + x217 + x22 + x223 + x226 + x228 + x230 + x233 + x243 + x244 + x25 + x26

 + x31 + x36 + x37 + x4 + x43 + x45 + x46 + x47 + x51 + x53 + x55 + x56 + x57

 + x6 + x64 + x67 + x72 + x74 + x8 + x80 + x81 + x83 + x84 + x85 + x86 + x88

 + x89 + x90 + x93 + x95 + x96 + x97 + x99 = 5

FWD: x104 + x106 + x108 + x11 + x115 + x122 + x13 + x133 + x137 + x160 + x164

 + x166 + x169 + x173 + x18 + x182 + x184 + x2 + x21 + x216 + x220 + x222

 + x227 + x231 + x232 + x238 + x29 + x32 + x49 + x50 + x54 + x68 + x75 + x76

 + x77 + x82 + x9 + x98 = 3

VARIABLES

0 <= x0 <= 1 Integer

0 <= x1 <= 1 Integer

0 <= x10 <= 1 Integer

0 <= x100 <= 1 Integer

0 <= x101 <= 1 Integer

0 <= x102 <= 1 Integer

0 <= x103 <= 1 Integer

0 <= x104 <= 1 Integer

0 <= x105 <= 1 Integer

0 <= x106 <= 1 Integer

0 <= x107 <= 1 Integer

0 <= x108 <= 1 Integer

0 <= x109 <= 1 Integer

0 <= x11 <= 1 Integer

0 <= x110 <= 1 Integer

0 <= x111 <= 1 Integer

0 <= x112 <= 1 Integer

0 <= x113 <= 1 Integer

0 <= x114 <= 1 Integer

0 <= x115 <= 1 Integer

0 <= x116 <= 1 Integer

0 <= x117 <= 1 Integer

0 <= x118 <= 1 Integer

0 <= x119 <= 1 Integer

0 <= x12 <= 1 Integer

0 <= x120 <= 1 Integer

0 <= x121 <= 1 Integer

0 <= x122 <= 1 Integer

0 <= x123 <= 1 Integer

0 <= x124 <= 1 Integer

0 <= x125 <= 1 Integer

0 <= x126 <= 1 Integer

0 <= x127 <= 1 Integer

0 <= x128 <= 1 Integer

0 <= x129 <= 1 Integer

0 <= x13 <= 1 Integer

0 <= x130 <= 1 Integer

0 <= x131 <= 1 Integer

0 <= x132 <= 1 Integer

0 <= x133 <= 1 Integer

0 <= x134 <= 1 Integer

0 <= x135 <= 1 Integer

0 <= x136 <= 1 Integer

0 <= x137 <= 1 Integer

0 <= x138 <= 1 Integer

0 <= x139 <= 1 Integer

0 <= x14 <= 1 Integer

0 <= x140 <= 1 Integer

0 <= x141 <= 1 Integer

0 <= x142 <= 1 Integer

0 <= x143 <= 1 Integer

0 <= x144 <= 1 Integer

0 <= x145 <= 1 Integer

0 <= x146 <= 1 Integer

0 <= x147 <= 1 Integer

0 <= x148 <= 1 Integer

0 <= x149 <= 1 Integer

0 <= x15 <= 1 Integer

0 <= x150 <= 1 Integer

0 <= x151 <= 1 Integer

0 <= x152 <= 1 Integer

0 <= x153 <= 1 Integer

0 <= x154 <= 1 Integer

0 <= x155 <= 1 Integer

0 <= x156 <= 1 Integer

0 <= x157 <= 1 Integer

0 <= x158 <= 1 Integer

0 <= x159 <= 1 Integer

0 <= x16 <= 1 Integer

0 <= x160 <= 1 Integer

0 <= x161 <= 1 Integer

0 <= x162 <= 1 Integer

0 <= x163 <= 1 Integer

0 <= x164 <= 1 Integer

0 <= x165 <= 1 Integer

0 <= x166 <= 1 Integer

0 <= x167 <= 1 Integer

0 <= x168 <= 1 Integer

0 <= x169 <= 1 Integer

0 <= x17 <= 1 Integer

0 <= x170 <= 1 Integer

0 <= x171 <= 1 Integer

0 <= x172 <= 1 Integer

0 <= x173 <= 1 Integer

0 <= x174 <= 1 Integer

0 <= x175 <= 1 Integer

0 <= x176 <= 1 Integer

0 <= x177 <= 1 Integer

0 <= x178 <= 1 Integer

0 <= x179 <= 1 Integer

0 <= x18 <= 1 Integer

0 <= x180 <= 1 Integer

0 <= x181 <= 1 Integer

0 <= x182 <= 1 Integer

0 <= x183 <= 1 Integer

0 <= x184 <= 1 Integer

0 <= x185 <= 1 Integer

0 <= x186 <= 1 Integer

0 <= x187 <= 1 Integer

0 <= x188 <= 1 Integer

0 <= x189 <= 1 Integer

0 <= x19 <= 1 Integer

0 <= x190 <= 1 Integer

0 <= x191 <= 1 Integer

0 <= x192 <= 1 Integer

0 <= x193 <= 1 Integer

0 <= x194 <= 1 Integer

0 <= x195 <= 1 Integer

0 <= x196 <= 1 Integer

0 <= x197 <= 1 Integer

0 <= x198 <= 1 Integer

0 <= x199 <= 1 Integer

0 <= x2 <= 1 Integer

0 <= x20 <= 1 Integer

0 <= x200 <= 1 Integer

0 <= x201 <= 1 Integer

0 <= x202 <= 1 Integer

0 <= x203 <= 1 Integer

0 <= x204 <= 1 Integer

0 <= x205 <= 1 Integer

0 <= x206 <= 1 Integer

0 <= x207 <= 1 Integer

0 <= x208 <= 1 Integer

0 <= x209 <= 1 Integer

0 <= x21 <= 1 Integer

0 <= x210 <= 1 Integer

0 <= x211 <= 1 Integer

0 <= x212 <= 1 Integer

0 <= x213 <= 1 Integer

0 <= x214 <= 1 Integer

0 <= x215 <= 1 Integer

0 <= x216 <= 1 Integer

0 <= x217 <= 1 Integer

0 <= x218 <= 1 Integer

0 <= x219 <= 1 Integer

0 <= x22 <= 1 Integer

0 <= x220 <= 1 Integer

0 <= x221 <= 1 Integer

0 <= x222 <= 1 Integer

0 <= x223 <= 1 Integer

0 <= x224 <= 1 Integer

0 <= x225 <= 1 Integer

0 <= x226 <= 1 Integer

0 <= x227 <= 1 Integer

0 <= x228 <= 1 Integer

0 <= x229 <= 1 Integer

0 <= x23 <= 1 Integer

0 <= x230 <= 1 Integer

0 <= x231 <= 1 Integer

0 <= x232 <= 1 Integer

0 <= x233 <= 1 Integer

0 <= x234 <= 1 Integer

0 <= x235 <= 1 Integer

0 <= x236 <= 1 Integer

0 <= x237 <= 1 Integer

0 <= x238 <= 1 Integer

0 <= x239 <= 1 Integer

0 <= x24 <= 1 Integer

0 <= x240 <= 1 Integer

0 <= x241 <= 1 Integer

0 <= x242 <= 1 Integer

0 <= x243 <= 1 Integer

0 <= x244 <= 1 Integer

0 <= x25 <= 1 Integer

0 <= x26 <= 1 Integer

0 <= x27 <= 1 Integer

0 <= x28 <= 1 Integer

0 <= x29 <= 1 Integer

0 <= x3 <= 1 Integer

0 <= x30 <= 1 Integer

0 <= x31 <= 1 Integer

0 <= x32 <= 1 Integer

0 <= x33 <= 1 Integer

0 <= x34 <= 1 Integer

0 <= x35 <= 1 Integer

0 <= x36 <= 1 Integer

0 <= x37 <= 1 Integer

0 <= x38 <= 1 Integer

0 <= x39 <= 1 Integer

0 <= x4 <= 1 Integer

0 <= x40 <= 1 Integer

0 <= x41 <= 1 Integer

0 <= x42 <= 1 Integer

0 <= x43 <= 1 Integer

0 <= x44 <= 1 Integer

0 <= x45 <= 1 Integer

0 <= x46 <= 1 Integer

0 <= x47 <= 1 Integer

0 <= x48 <= 1 Integer

0 <= x49 <= 1 Integer

0 <= x5 <= 1 Integer

0 <= x50 <= 1 Integer

0 <= x51 <= 1 Integer

0 <= x52 <= 1 Integer

0 <= x53 <= 1 Integer

0 <= x54 <= 1 Integer

0 <= x55 <= 1 Integer

0 <= x56 <= 1 Integer

0 <= x57 <= 1 Integer

0 <= x58 <= 1 Integer

0 <= x59 <= 1 Integer

0 <= x6 <= 1 Integer

0 <= x60 <= 1 Integer

0 <= x61 <= 1 Integer

0 <= x62 <= 1 Integer

0 <= x63 <= 1 Integer

0 <= x64 <= 1 Integer

0 <= x65 <= 1 Integer

0 <= x66 <= 1 Integer

0 <= x67 <= 1 Integer

0 <= x68 <= 1 Integer

0 <= x69 <= 1 Integer

0 <= x7 <= 1 Integer

0 <= x70 <= 1 Integer

0 <= x71 <= 1 Integer

0 <= x72 <= 1 Integer

0 <= x73 <= 1 Integer

0 <= x74 <= 1 Integer

0 <= x75 <= 1 Integer

0 <= x76 <= 1 Integer

0 <= x77 <= 1 Integer

0 <= x78 <= 1 Integer

0 <= x79 <= 1 Integer

0 <= x8 <= 1 Integer

0 <= x80 <= 1 Integer

0 <= x81 <= 1 Integer

0 <= x82 <= 1 Integer

0 <= x83 <= 1 Integer

0 <= x84 <= 1 Integer

0 <= x85 <= 1 Integer

0 <= x86 <= 1 Integer

0 <= x87 <= 1 Integer

0 <= x88 <= 1 Integer

0 <= x89 <= 1 Integer

0 <= x9 <= 1 Integer

0 <= x90 <= 1 Integer

0 <= x91 <= 1 Integer

0 <= x92 <= 1 Integer

0 <= x93 <= 1 Integer

0 <= x94 <= 1 Integer

0 <= x95 <= 1 Integer

0 <= x96 <= 1 Integer

0 <= x97 <= 1 Integer

0 <= x98 <= 1 Integer

0 <= x99 <= 1 Integer

